NAME          BLANK   
ROWS
 N  OBJROW
 L  R0000000
COLUMNS
    C0000000  OBJROW     -940.         R0000000  668.        
    C0000001  OBJROW     -417.         R0000000  78.         
    C0000002  OBJROW     -49.          R0000000  311.        
    C0000003  OBJROW     -209.         R0000000  132.        
    C0000004  OBJROW     -705.         R0000000  493.        
    C0000005  OBJROW     -672.         R0000000  140.        
    C0000006  OBJROW     -74.          R0000000  470.        
    C0000007  OBJROW     -226.         R0000000  404.        
    C0000008  OBJROW     -16.          R0000000  116.        
    C0000009  OBJROW     -150.         R0000000  172.        
    C0000010  OBJROW     -652.         R0000000  948.        
    C0000011  OBJROW     -924.         R0000000  884.        
    C0000012  OBJROW     -671.         R0000000  253.        
    C0000013  OBJROW     -271.         R0000000  341.        
    C0000014  OBJROW     -690.         R0000000  598.        
    C0000015  OBJROW     -873.         R0000000  435.        
    C0000016  OBJROW     -24.          R0000000  744.        
    C0000017  OBJROW     -985.         R0000000  263.        
RHS
    RHS       R0000000  14132.      
BOUNDS
 BV BOUND     C0000000  1.          
 BV BOUND     C0000001  1.          
 BV BOUND     C0000002  1.          
 BV BOUND     C0000003  1.          
 BV BOUND     C0000004  1.          
 BV BOUND     C0000005  1.          
 BV BOUND     C0000006  1.          
 BV BOUND     C0000007  1.          
 BV BOUND     C0000008  1.          
 BV BOUND     C0000009  1.          
 BV BOUND     C0000010  1.          
 BV BOUND     C0000011  1.          
 BV BOUND     C0000012  1.          
 BV BOUND     C0000013  1.          
 BV BOUND     C0000014  1.          
 BV BOUND     C0000015  1.          
 BV BOUND     C0000016  1.          
 BV BOUND     C0000017  1.          
ENDATA
